NAME : portcgen-16-9
COMMENT : portcgen N=16, seed=9
TYPE : TSP
DIMENSION : 16
EDGE_WEIGHT_TYPE : EUC_2D
NODE_COORD_SECTION
1 -7756 299479
2 396008 154768
3 -285132 201002
4 75875 -94288
5 -49670 -142870
6 90313 -57866
7 -204451 171202
8 -142851 -46963
9 180061 6830
10 -142185 103910
11 55504 249856
12 -69268 363825
13 364532 -100690
14 -45327 32403
15 576001 26776
16 -278312 238062
